8

35 50

16

 1 30 40
 2 37 52
 3 49 49
 4 52 64
 5 31 62
 6 52 33
 7 42 41
 8 52 41
 9 57 58
 10 62 42
 11 42 57
 12 27 68
 13 43 67
 14 58 48
 15 58 27
 16 37 69

1 0 0
2 19 29
3 30 44
4 16 27
5 23 33
6 11 15
7 31 49
8 15 24
9 28 43
10 8 12
11 8 13
12 7 12
13 14 25
14 6 10
15 19 24
16 11 16
